NAME: random29
TYPE: TSP
DIMENSION: 29
EDGE_WEIGHT_TYPE: EXPLICIT
EDGE_WEIGHT_FORMAT: FULL_MATRIX
EDGE_WEIGHT_SECTION
0 125 125 125 125 125 125 25 125 52 125 125 125 125 16 125 125 125 125 125 125 125 125 66 125 14 125 25 125
125 0 125 125 125 17 125 125 125 125 18 125 125 125 125 13 125 10 125 125 125 125 21 125 19 125 125 125 125
125 125 0 125 125 125 125 125 125 125 125 125 12 29 125 125 12 125 125 21 125 125 125 125 125 125 16 125 15
125 125 125 0 12 125 125 125 125 12 125 13 125 125 125 125 125 125 25 125 26 125 125 125 125 125 125 125 125
125 125 125 12 0 125 125 125 125 11 125 125 29 27 30 125 125 125 28 125 125 125 125 125 125 125 125 125 125
125 17 125 125 125 0 125 125 6 125 125 125 125 125 125 14 125 125 125 125 125 125 125 125 14 125 125 125 125
125 125 125 125 125 125 0 125 125 125 52 125 125 125 125 24 125 26 125 38 125 125 125 125 125 125 29 90 125
25 125 125 125 125 125 125 0 125 125 125 125 125 24 27 125 125 125 125 20 125 125 125 125 125 21 125 35 125
125 125 125 125 125 6 125 125 0 125 125 125 125 125 125 16 125 125 22 125 125 125 125 125 18 125 12 125 8
52 125 125 12 11 125 125 125 125 0 125 15 125 125 37 125 125 125 125 125 125 125 125 14 125 125 125 125 125
125 18 125 125 125 125 52 125 125 125 0 125 125 125 125 125 125 27 125 125 125 125 12 125 125 125 125 125 125
125 125 125 13 125 125 125 125 125 15 125 0 125 125 125 125 125 125 125 125 33 50 125 7 125 125 125 125 125
125 125 12 125 29 125 125 125 125 125 125 125 0 32 125 125 1 125 9 125 125 125 125 125 125 125 125 125 125
125 125 29 125 27 125 125 24 125 125 125 125 32 0 8 125 125 125 125 33 125 125 125 125 125 125 125 125 125
16 125 125 125 30 125 125 27 125 37 125 125 125 8 0 125 125 125 125 125 125 125 125 125 125 125 125 125 125
125 13 125 125 125 14 24 125 16 125 125 125 125 125 125 0 125 5 125 125 125 125 125 125 125 125 18 125 125
125 125 12 125 125 125 125 125 125 125 125 125 1 125 125 125 0 125 10 125 125 125 125 125 125 125 125 125 12
125 10 125 125 125 125 26 125 125 125 27 125 125 125 125 5 125 0 125 125 125 125 125 125 125 125 125 125 125
125 125 125 25 28 125 125 125 22 125 125 125 9 125 125 125 10 125 0 125 16 125 125 125 27 125 125 125 17
125 125 21 125 125 125 38 20 125 125 125 125 125 33 125 125 125 125 125 0 125 125 125 125 125 125 27 54 125
125 125 125 26 125 125 125 125 125 125 125 33 125 125 125 125 125 125 16 125 0 18 125 125 25 125 125 125 125
125 125 125 125 125 125 125 125 125 125 125 50 125 125 125 125 125 125 125 125 18 0 19 125 15 125 125 125 125
125 21 125 125 125 125 125 125 125 125 12 125 125 125 125 125 125 125 125 125 125 19 0 125 17 125 125 125 125
66 125 125 125 125 125 125 125 125 14 125 7 125 125 125 125 125 125 125 125 125 125 125 0 125 125 125 91 125
125 19 125 125 125 14 125 125 18 125 125 125 125 125 125 125 125 125 27 125 25 15 17 125 0 125 125 125 125
14 125 125 125 125 125 125 21 125 125 125 125 125 125 125 125 125 125 125 125 125 125 125 125 125 0 125 15 125
125 125 16 125 125 125 29 125 12 125 125 125 125 125 125 18 125 125 125 27 125 125 125 125 125 125 0 125 11
25 125 125 125 125 125 90 35 125 125 125 125 125 125 125 125 125 125 125 54 125 125 125 91 125 15 125 0 125
125 125 15 125 125 125 125 125 8 125 125 125 125 125 125 125 12 125 17 125 125 125 125 125 125 125 11 125 0
EOF
